 vasp.5.4.4.18Apr17-6-g9f103f2a35 (build Jul 11 2019 11:52:51) complex

 executed on             LinuxIFC date 2024.08.29  21:15:24

 INCAR:
 POTCAR:    PAW_PBE Ti 08Apr2002
 POTCAR:    PAW_PBE O 08Apr2002

 POTCAR:    PAW_PBE Ti 08Apr2002
   VRHFIN =Ti: d3 s1

   TITEL  = PAW_PBE Ti 08Apr2002
   POMASS =   47.880; ZVAL   =    4.000    mass and valenz
   ENMAX  =  178.330; ENMIN  =  133.747 eV

 POTCAR:    PAW_PBE O 08Apr2002
   VRHFIN =O: s2p4

   TITEL  = PAW_PBE O 08Apr2002
   POMASS =   16.000; ZVAL   =    6.000    mass and valenz
   ENMAX  =  400.000; ENMIN  =  300.000 eV

  PAW_PBE Ti 08Apr2002                  :
  PAW_PBE O 08Apr2002                   :

 POSCAR: Ti12 O18
  positions in direct lattice
  velocities in cartesian coordinates
 exchange correlation table for  LEXCH =        8
   RHO(1)=    0.500       N(1)  =     2000
   RHO(2)=  100.500       N(2)  =     4000

 ion  position               nearest neighbor table
   1  0.333  0.667  0.012-  16 2.01  17 2.01  18 2.01  25 2.07  27 2.07  26 2.07  10 2.64  11 2.97
                            11 2.97  11 2.97
   2  0.000  0.000  0.154-  16 2.01  17 2.01  18 2.01  13 2.07  14 2.07  15 2.07   5 2.64   4 2.97
                             4 2.97   4 2.97
   3  0.333  0.667  0.321-  15 2.01  14 2.01  13 2.01  23 2.07  24 2.07  22 2.07   8 2.64   5 2.97
                             5 2.97   5 2.97
   4  0.667  0.333  0.179-  15 2.01  13 2.01  14 2.01  16 2.07  18 2.07  17 2.07  11 2.64   2 2.97
                             2 2.97   2 2.97
   5  0.000  0.000  0.346-  22 2.01  23 2.01  24 2.01  13 2.07  14 2.07  15 2.07   2 2.64   3 2.97
                             3 2.97   3 2.97
   6  0.667  0.333  0.488-  23 2.01  22 2.01  24 2.01  20 2.07  21 2.07  19 2.07   9 2.64   8 2.97
                             8 2.97   8 2.97
   7  0.000  0.000  0.654-  19 2.01  20 2.01  21 2.01  28 2.07  29 2.07  30 2.07  12 2.64   9 2.97
                             9 2.97   9 2.97
   8  0.333  0.667  0.512-  20 2.01  19 2.01  21 2.01  23 2.07  24 2.07  22 2.07   3 2.64   6 2.97
                             6 2.97   6 2.97
   9  0.667  0.333  0.679-  30 2.01  29 2.01  28 2.01  20 2.07  21 2.07  19 2.07   6 2.64   7 2.97
                             7 2.97   7 2.97
  10  0.333  0.667  0.821-  30 2.01  28 2.01  29 2.01  25 2.07  27 2.07  26 2.07   1 2.64  12 2.97
                            12 2.97  12 2.97
  11  0.667  0.333  0.988-  25 2.01  26 2.01  27 2.01  16 2.07  18 2.07  17 2.07   4 2.64   1 2.97
                             1 2.97   1 2.97
  12  0.000  0.000  0.846-  25 2.01  26 2.01  27 2.01  28 2.07  29 2.07  30 2.07   7 2.64  10 2.97
                            10 2.97  10 2.97
  13  0.313  0.000  0.250-   4 2.01   3 2.01   2 2.07   5 2.07
  14  0.000  0.313  0.250-   3 2.01   4 2.01   2 2.07   5 2.07
  15  0.687  0.687  0.250-   3 2.01   4 2.01   2 2.07   5 2.07
  16  0.354  0.333  0.083-   1 2.01   2 2.01   4 2.07  11 2.07
  17  0.667  0.021  0.083-   1 2.01   2 2.01   4 2.07  11 2.07
  18  0.979  0.646  0.083-   1 2.01   2 2.01   4 2.07  11 2.07
  19  0.979  0.333  0.583-   8 2.01   7 2.01   9 2.07   6 2.07
  20  0.667  0.646  0.583-   8 2.01   7 2.01   9 2.07   6 2.07
  21  0.354  0.021  0.583-   7 2.01   8 2.01   9 2.07   6 2.07
  22  0.021  0.667  0.417-   6 2.01   5 2.01   3 2.07   8 2.07
  23  0.333  0.354  0.417-   6 2.01   5 2.01   3 2.07   8 2.07
  24  0.646  0.979  0.417-   5 2.01   6 2.01   3 2.07   8 2.07
  25  0.646  0.667  0.917-  11 2.01  12 2.01  10 2.07   1 2.07
  26  0.333  0.979  0.917-  11 2.01  12 2.01  10 2.07   1 2.07
  27  0.021  0.354  0.917-  11 2.01  12 2.01  10 2.07   1 2.07
  28  0.687  0.000  0.750-  10 2.01   9 2.01   7 2.07  12 2.07
  29  0.000  0.687  0.750-   9 2.01  10 2.01   7 2.07  12 2.07
  30  0.313  0.313  0.750-   9 2.01  10 2.01   7 2.07  12 2.07

IMPORTANT INFORMATION: All symmetrisations will be switched off!
NOSYMM: (Re-)initialisation of all symmetry stuff for point group C_1.

 KPOINTS: K-Spacing Value to Generate K-Mesh: 0.03

Automatic generation of k-mesh.
Space group operators:
 irot       det(A)        alpha          n_x          n_y          n_z        tau_x        tau_y        tau_z
    1     1.000000     0.000001     1.000000     0.000000     0.000000     0.000000     0.000000     0.000000

 Subroutine IBZKPT returns following result:

 Found    162 irreducible k-points:

 Following reciprocal coordinates:
            Coordinates               Weight
  0.000000  0.000000  0.250000      1.000000
  0.111111  0.000000  0.250000      1.000000
  0.222222  0.000000  0.250000      1.000000
  0.333333  0.000000  0.250000      1.000000
  0.444444  0.000000  0.250000      1.000000
 -0.444444 -0.000000  0.250000      1.000000
 -0.333333 -0.000000  0.250000      1.000000
 -0.222222 -0.000000  0.250000      1.000000
 -0.111111 -0.000000  0.250000      1.000000
  0.000000  0.111111  0.250000      1.000000
  0.111111  0.111111  0.250000      1.000000
  0.222222  0.111111  0.250000      1.000000
  0.333333  0.111111  0.250000      1.000000
  0.444444  0.111111  0.250000      1.000000
 -0.444444  0.111111  0.250000      1.000000
 -0.333333  0.111111  0.250000      1.000000
 -0.222222  0.111111  0.250000      1.000000
 -0.111111  0.111111  0.250000      1.000000
  0.000000  0.222222  0.250000      1.000000
  0.111111  0.222222  0.250000      1.000000
  0.222222  0.222222  0.250000      1.000000
  0.333333  0.222222  0.250000      1.000000
  0.444444  0.222222  0.250000      1.000000
 -0.444444  0.222222  0.250000      1.000000
 -0.333333  0.222222  0.250000      1.000000
 -0.222222  0.222222  0.250000      1.000000
 -0.111111  0.222222  0.250000      1.000000
  0.000000  0.333333  0.250000      1.000000
  0.111111  0.333333  0.250000      1.000000
  0.222222  0.333333  0.250000      1.000000
  0.333333  0.333333  0.250000      1.000000
  0.444444  0.333333  0.250000      1.000000
 -0.444444  0.333333  0.250000      1.000000
 -0.333333  0.333333  0.250000      1.000000
 -0.222222  0.333333  0.250000      1.000000
 -0.111111  0.333333  0.250000      1.000000
  0.000000  0.444444  0.250000      1.000000
  0.111111  0.444444  0.250000      1.000000
  0.222222  0.444444  0.250000      1.000000
  0.333333  0.444444  0.250000      1.000000
  0.444444  0.444444  0.250000      1.000000
 -0.444444  0.444444  0.250000      1.000000
 -0.333333  0.444444  0.250000      1.000000
 -0.222222  0.444444  0.250000      1.000000
 -0.111111  0.444444  0.250000      1.000000
 -0.000000 -0.444444  0.250000      1.000000
  0.111111 -0.444444  0.250000      1.000000
  0.222222 -0.444444  0.250000      1.000000
  0.333333 -0.444444  0.250000      1.000000
  0.444444 -0.444444  0.250000      1.000000
 -0.444444 -0.444444  0.250000      1.000000
 -0.333333 -0.444444  0.250000      1.000000
 -0.222222 -0.444444  0.250000      1.000000
 -0.111111 -0.444444  0.250000      1.000000
 -0.000000 -0.333333  0.250000      1.000000
  0.111111 -0.333333  0.250000      1.000000
  0.222222 -0.333333  0.250000      1.000000
  0.333333 -0.333333  0.250000      1.000000
  0.444444 -0.333333  0.250000      1.000000
 -0.444444 -0.333333  0.250000      1.000000
[...]
  0.333333 -0.222222 -0.250000      1.000000
  0.444444 -0.222222 -0.250000      1.000000
 -0.444444 -0.222222 -0.250000      1.000000
 -0.333333 -0.222222 -0.250000      1.000000
 -0.222222 -0.222222 -0.250000      1.000000
 -0.111111 -0.222222 -0.250000      1.000000
 -0.000000 -0.111111 -0.250000      1.000000
  0.111111 -0.111111 -0.250000      1.000000
  0.222222 -0.111111 -0.250000      1.000000
  0.333333 -0.111111 -0.250000      1.000000
  0.444444 -0.111111 -0.250000      1.000000
 -0.444444 -0.111111 -0.250000      1.000000
 -0.333333 -0.111111 -0.250000      1.000000
 -0.222222 -0.111111 -0.250000      1.000000
 -0.111111 -0.111111 -0.250000      1.000000

 Following cartesian coordinates:
            Coordinates               Weight
  0.000000  0.000000  0.018146      1.000000
  0.021757 -0.012562  0.018146      1.000000
  0.043515 -0.025123  0.018146      1.000000
  0.065272 -0.037685  0.018146      1.000000
  0.087029 -0.050246  0.018146      1.000000
 -0.087029  0.050246  0.018146      1.000000
 -0.065272  0.037685  0.018146      1.000000
 -0.043515  0.025123  0.018146      1.000000
 -0.021757  0.012562  0.018146      1.000000
  0.021757  0.012562  0.018146      1.000000
  0.043515  0.000000  0.018146      1.000000
  0.065272 -0.012562  0.018146      1.000000
  0.087029 -0.025123  0.018146      1.000000
  0.108787 -0.037685  0.018146      1.000000
 -0.065272  0.062808  0.018146      1.000000
 -0.043515  0.050246  0.018146      1.000000
 -0.021757  0.037685  0.018146      1.000000
  0.000000  0.025123  0.018146      1.000000
  0.043515  0.025123  0.018146      1.000000
  0.065272  0.012562  0.018146      1.000000
  0.087029  0.000000  0.018146      1.000000
  0.108787 -0.012562  0.018146      1.000000
  0.130544 -0.025123  0.018146      1.000000
 -0.043515  0.075370  0.018146      1.000000
 -0.021757  0.062808  0.018146      1.000000
  0.000000  0.050246  0.018146      1.000000
  0.021757  0.037685  0.018146      1.000000
  0.065272  0.037685  0.018146      1.000000
  0.087029  0.025123  0.018146      1.000000
  0.108787  0.012562  0.018146      1.000000
  0.130544  0.000000  0.018146      1.000000
  0.152301 -0.012562  0.018146      1.000000
 -0.021757  0.087931  0.018146      1.000000
  0.000000  0.075370  0.018146      1.000000
  0.021757  0.062808  0.018146      1.000000
  0.043515  0.050246  0.018146      1.000000
  0.087029  0.050246  0.018146      1.000000
  0.108787  0.037685  0.018146      1.000000
  0.130544  0.025123  0.018146      1.000000
  0.152301  0.012562  0.018146      1.000000
  0.174059  0.000000  0.018146      1.000000
  0.000000  0.100493  0.018146      1.000000
  0.021757  0.087931  0.018146      1.000000
  0.043515  0.075370  0.018146      1.000000
  0.065272  0.062808  0.018146      1.000000
 -0.087029 -0.050246  0.018146      1.000000
 -0.065272 -0.062808  0.018146      1.000000
 -0.043515 -0.075370  0.018146      1.000000
 -0.021757 -0.087931  0.018146      1.000000
  0.000000 -0.100493  0.018146      1.000000
 -0.174059  0.000000  0.018146      1.000000
 -0.152301 -0.012562  0.018146      1.000000
 -0.130544 -0.025123  0.018146      1.000000
 -0.108787 -0.037685  0.018146      1.000000
 -0.065272 -0.037685  0.018146      1.000000
 -0.043515 -0.050246  0.018146      1.000000
 -0.021757 -0.062808  0.018146      1.000000
  0.000000 -0.075370  0.018146      1.000000
  0.021757 -0.087931  0.018146      1.000000
 -0.152301  0.012562  0.018146      1.000000
[...]
  0.021757 -0.062808 -0.018146      1.000000
  0.043515 -0.075370 -0.018146      1.000000
 -0.130544  0.025123 -0.018146      1.000000
 -0.108787  0.012562 -0.018146      1.000000
 -0.087029  0.000000 -0.018146      1.000000
 -0.065272 -0.012562 -0.018146      1.000000
 -0.021757 -0.012562 -0.018146      1.000000
  0.000000 -0.025123 -0.018146      1.000000
  0.021757 -0.037685 -0.018146      1.000000
  0.043515 -0.050246 -0.018146      1.000000
  0.065272 -0.062808 -0.018146      1.000000
 -0.108787  0.037685 -0.018146      1.000000
 -0.087029  0.025123 -0.018146      1.000000
[...]
 augmentation part      156.0000000 magnetization

[...]

 Broyden mixing:
  rms(total) = 0.81737E+01    rms(broyden)= 0.81731E+01
  rms(prec ) = 0.87212E+01
  weight for this iteration     100.00

[...]

 eigenvalues of (default mixing * dielectric matrix)
  average eigenvalue GAMMA=   1.0755
  1.0755

[...]

 eigenvalue-minimisations  : 62336
 total energy-change (2. order) : 0.3690548E-07  (-0.1353413E-08)
 number of electron     156.0000081 magnetization
 augmentation part       24.4566447 magnetization

 Broyden mixing:
  rms(total) = 0.60460E-04    rms(broyden)= 0.60456E-04
  rms(prec ) = 0.80969E-04
  weight for this iteration     100.00

 eigenvalues of (default mixing * dielectric matrix)
  average eigenvalue GAMMA=   1.0080
  3.1115  2.5815  2.1686  1.6825  1.4018  1.2524  0.9960  0.9318  0.9318  0.8513
  0.6669  0.2646  0.2542  0.2474  0.1842  0.1827  0.2108  0.2237

[...]

--------------------------------------- Iteration      1(  24)  ---------------------------------------

 eigenvalue-minimisations  : 53408
 total energy-change (2. order) :-0.3141395E-08  (-0.6045150E-09)
 number of electron     156.0000081 magnetization
 augmentation part       24.4566447 magnetization

 Free energy of the ion-electron system (eV)
  alpha Z        PSCENC =       739.05072767
  Ewald energy   TEWEN  =     -7574.34864658
  -Hartree energ DENC   =     -2317.22473261
  -exchange      EXHF   =         0.00000000
  -V(xc)+E(xc)   XCENC  =        84.73524797
  PAW double counting   =     14617.58660570   -14170.33447759
  entropy T*S    EENTRO =        -0.01216175
  eigenvalues    EBANDS =      -565.50209749
  atomic energy  EATOM  =      8918.24473510
  Solvation  Ediel_sol  =         0.00000000
  free energy    TOTEN  =      -267.80479959 eV

  energy without entropy =     -267.79263784  energy(sigma->0) =     -267.79871871

 average (electrostatic) potential at core
  the test charge radii are     1.2598  0.7215
  (the norm of the test charge is              1.0000)
       1 -26.1361       2 -26.1361       3 -26.1361       4 -26.1361       5 -26.1361
       6 -26.1361       7 -26.1361       8 -26.1361       9 -26.1361      10 -26.1361
      11 -26.1361      12 -26.1361      13 -72.0134      14 -72.0134      15 -72.0134
      16 -72.0134      17 -72.0134      18 -72.0134      19 -72.0134      20 -72.0134
      21 -72.0134      22 -72.0134      23 -72.0134      24 -72.0134      25 -72.0134
      26 -72.0134      27 -72.0134      28 -72.0134      29 -72.0134      30 -72.0134

 E-fermi :   5.1998     XC(G=0): -11.4847     alpha+bet :-11.6590

 k-point     1 :       0.0000    0.0000    0.2500
  band No.  band energies     occupation
      1     -15.8519      2.00000
      2     -15.6810      2.00000
      3     -15.3723      2.00000
      4     -14.9933      2.00000
      5     -14.7873      2.00000
      6     -14.7873      2.00000
      7     -14.7472      2.00000
      8     -14.7472      2.00000
      9     -14.6766      2.00000
     10     -14.6766      2.00000
     11     -14.6393      2.00000
     12     -14.5933      2.00000
     13     -14.5933      2.00000
     14     -14.5195      2.00000
     15     -14.5195      2.00000
     16     -14.4766      2.00000
     17     -14.4766      2.00000
     18     -14.4216      2.00000
     19      -2.9303      2.00000
     20      -2.5594      2.00000
     21      -2.3157      2.00000
     22      -2.3157      2.00000
     23      -2.2159      2.00000
     24      -2.2159      2.00000
     25      -2.0554      2.00000
     26      -2.0422      2.00000
     27      -2.0422      2.00000
     28      -1.9066      2.00000
     29      -1.9066      2.00000
     30      -1.8651      2.00000
     31      -1.8651      2.00000
     32      -1.8209      2.00000
     33      -1.8209      2.00000
     34      -1.7920      2.00000
     35      -1.7791      2.00000
     36      -1.6361      2.00000
     37      -1.4695      2.00000
     38      -1.4695      2.00000
     39      -1.4204      2.00000
     40      -1.3639      2.00000
     41      -1.3639      2.00000
     42      -1.3588      2.00000
     43      -1.3588      2.00000
     44      -1.1800      2.00000
     45      -1.0603      2.00000
     46      -1.0603      2.00000
     47      -0.9658      2.00000
     48      -0.9658      2.00000
     49      -0.8826      2.00000
     50      -0.8826      2.00000
     51      -0.8019      2.00000
     52      -0.5826      2.00000
     53      -0.4128      2.00000
     54      -0.0840      2.00000
     55       0.2373      2.00000
     56       0.3026      2.00000
     57       0.3026      2.00000
     58       0.3109      2.00000
     59       0.3704      2.00000
     60       0.3977      2.00000
[...]
    194      23.2492      0.00000
    195      23.9512      0.00000
    196      23.9512      0.00000
    197      24.4866      0.00000
    198      24.6491      0.00000
    199      24.6491      0.00000
    200      24.7764      0.00000
    201      24.7764      0.00000
    202      24.8534      0.00000
    203      24.8534      0.00000
    204      25.0176      0.00000
    205      25.2798      0.00000
    206      25.2798      0.00000
    207      25.5573      0.00000
    208      25.5641      0.00000

[...]

 k-point   162 :      -0.1111   -0.1111   -0.2500
  band No.  band energies     occupation
      1     -15.7325      2.00000
      2     -15.5798      2.00000
      3     -15.3084      2.00000
      4     -14.9874      2.00000
      5     -14.8082      2.00000
      6     -14.8052      2.00000
      7     -14.7578      2.00000
      8     -14.7292      2.00000
      9     -14.7242      2.00000
     10     -14.6897      2.00000
     11     -14.6296      2.00000
     12     -14.6161      2.00000
     13     -14.5992      2.00000
     14     -14.5715      2.00000
     15     -14.5663      2.00000
     16     -14.5200      2.00000
     17     -14.5026      2.00000
     18     -14.4555      2.00000
     19      -2.8114      2.00000
     20      -2.5758      2.00000
     21      -2.3755      2.00000
     22      -2.3624      2.00000
     23      -2.3292      2.00000
     24      -2.3229      2.00000
     25      -2.2473      2.00000
     26      -2.2226      2.00000
     27      -2.1460      2.00000
     28      -2.0789      2.00000
     29      -1.9991      2.00000
     30      -1.9643      2.00000
     31      -1.8964      2.00000
     32      -1.8700      2.00000
     33      -1.7732      2.00000
     34      -1.7106      2.00000
     35      -1.6313      2.00000
     36      -1.4873      2.00000
     37      -1.4217      2.00000
     38      -1.4003      2.00000
     39      -1.3671      2.00000
     40      -1.3218      2.00000
     41      -1.1935      2.00000
     42      -1.1550      2.00000
     43      -1.1017      2.00000
     44      -1.0889      2.00000
     45      -1.0796      2.00000
     46      -1.0308      2.00000
     47      -0.9319      2.00000
     48      -0.8524      2.00000
     49      -0.8052      2.00000
     50      -0.7265      2.00000
     51      -0.6155      2.00000
     52      -0.3315      2.00000
     53      -0.1917      2.00000
     54      -0.1036      2.00000
     55       0.0925      2.00000
     56       0.1607      2.00000
     57       0.1691      2.00000
     58       0.2200      2.00000
     59       0.2447      2.00000
     60       0.3881      2.00000
[...]
    194      22.7951      0.00000
    195      23.1228      0.00000
    196      23.2025      0.00000
    197      23.3161      0.00000
    198      23.5634      0.00000
    199      23.7799      0.00000
    200      23.8867      0.00000
    201      24.0336      0.00000
    202      24.2495      0.00000
    203      24.4514      0.00000
    204      24.7643      0.00000
    205      25.0645      0.00000
    206      25.1224      0.00000
    207      25.6202      0.00000
    208      25.6755      0.00000

 soft charge-density along one line, spin component           1
         0         1         2         3         4         5         6         7         8         9
 total charge-density along one line

------------------------ aborting loop because EDIFF is reached ----------------------------------------

  FORCE on cell =-STRESS in cart. coord.  units (eV):
  Direction    XX          YY          ZZ          XY          YZ          ZX
  Alpha Z   739.05073   739.05073   739.05073
  Ewald   -2509.29955 -2509.29955 -2555.77727     0.00000     0.00000    -0.00000
  Hartree   766.03472   766.03473   785.15475    -0.00000     0.00000    -0.00000
  E(xc)    -736.61276  -736.61273  -742.96727    -0.00000    -0.00000    -0.00000
  Local    -686.36374  -686.36250  -671.99441     0.00000    -0.00000     0.00000
  n-local  -450.01954  -450.01964  -467.53717     0.00000     0.00000    -0.00000
  augment   186.46531   186.46431   195.09714    -0.00000     0.00000     0.00000
  Kinetic  2688.17244  2688.17261  2721.25202     0.00000     0.00000     0.00000
  Fock        0.00000     0.00000     0.00000     0.00000     0.00000     0.00000
  Total      -2.57239    -2.57205     2.27851     0.00000     0.00000     0.00000
  in kB     -13.24523   -13.24346    11.73204     0.00000     0.00001     0.00000

 VOLUME and BASIS-vectors are now :
  energy-cutoff  :      400.00
  volume of cell :      311.16
      direct lattice vectors                 reciprocal lattice vectors
     2.553415321 -4.422645069  0.000000000     0.195816167 -0.113054517  0.000000000
     2.553415321  4.422645069  0.000000000     0.195816167  0.113054517  0.000000000
     0.000000000  0.000000000 13.777009152     0.000000000  0.000000000  0.072584694

  length of vectors
     5.106830642  5.106830642 13.777009152     0.226109033  0.226109033  0.072584694

 FORCES acting on ions
    electron-ion (+dipol)            ewald-force                    non-local-force                 convergence-correction
   -.518E-06 -.792E-08 -.234E+02   -.521E-13 0.138E-10 0.244E+02   -.391E-06 -.147E-06 -.100E+01   0.294E-07 0.319E-07 -.946E-04
   -.426E-06 -.630E-07 0.234E+02   -.304E-13 0.365E-11 -.244E+02   -.422E-06 0.152E-06 0.100E+01   0.213E-07 0.571E-07 -.670E-04
   0.494E-06 0.924E-08 0.234E+02   0.782E-13 0.102E-10 -.244E+02   0.403E-06 0.164E-06 0.100E+01   -.139E-07 -.474E-07 -.617E-04
   0.438E-06 0.492E-07 -.234E+02   0.486E-13 -.102E-10 0.244E+02   0.398E-06 -.168E-06 -.100E+01   -.649E-08 -.254E-07 -.569E-04
   -.514E-06 0.854E-08 -.234E+02   -.314E-13 -.365E-11 0.244E+02   -.379E-06 -.155E-06 -.100E+01   0.213E-07 0.189E-07 -.391E-04
   -.394E-06 -.769E-07 0.234E+02   -.795E-13 -.138E-10 -.244E+02   -.408E-06 0.184E-06 0.100E+01   -.350E-07 0.348E-07 -.853E-05
   0.526E-06 0.354E-08 0.234E+02   0.711E-13 0.365E-11 -.244E+02   0.386E-06 0.156E-06 0.100E+01   -.281E-07 -.373E-07 0.120E-03
   0.397E-06 0.797E-07 -.234E+02   0.460E-13 0.137E-10 0.244E+02   0.402E-06 -.184E-06 -.100E+01   0.243E-07 -.435E-07 0.222E-04
   -.515E-06 0.497E-08 -.234E+02   -.391E-13 -.102E-10 0.244E+02   -.371E-06 -.156E-06 -.100E+01   0.133E-07 0.191E-07 0.158E-03
   -.430E-06 -.821E-07 0.234E+02   -.604E-13 0.102E-10 -.244E+02   -.416E-06 0.202E-06 0.100E+01   0.168E-07 0.249E-07 0.638E-04
   0.549E-06 0.157E-07 0.234E+02   0.886E-13 -.138E-10 -.244E+02   0.399E-06 0.168E-06 0.100E+01   -.660E-07 -.604E-07 -.102E-03
   0.408E-06 0.686E-07 -.234E+02   0.355E-13 -.369E-11 0.244E+02   0.386E-06 -.205E-06 -.100E+01   0.417E-07 -.797E-08 0.582E-04
   -.166E+02 0.288E+02 -.246E-04   0.188E+02 -.326E+02 0.389E-11   -.222E+01 0.385E+01 0.360E-05   -.636E-04 -.443E-04 0.332E-04
   -.166E+02 -.288E+02 -.252E-04   0.188E+02 0.326E+02 -.395E-11   -.222E+01 -.385E+01 0.404E-05   0.702E-04 -.330E-04 0.332E-04
   0.332E+02 -.736E-04 -.248E-04   -.377E+02 0.251E-14 -.213E-13   0.444E+01 0.427E-05 0.383E-05   -.660E-05 0.772E-04 0.332E-04
   0.166E+02 -.288E+02 0.206E-03   -.188E+02 0.326E+02 -.456E-10   0.222E+01 -.385E+01 -.112E-05   -.157E-04 0.939E-04 -.213E-03
   0.166E+02 0.288E+02 0.206E-03   -.188E+02 -.326E+02 -.487E-10   0.222E+01 0.385E+01 -.155E-05   -.736E-04 -.603E-04 -.213E-03
   -.332E+02 0.284E-04 0.206E-03   0.377E+02 -.659E-11 -.587E-10   -.444E+01 -.314E-05 -.134E-05   0.891E-04 -.335E-04 -.213E-03
   -.166E+02 0.288E+02 -.178E-03   0.188E+02 -.326E+02 -.464E-10   -.222E+01 0.385E+01 0.268E-05   0.837E-05 -.608E-04 0.185E-03
   -.166E+02 -.288E+02 -.178E-03   0.188E+02 0.326E+02 -.457E-10   -.222E+01 -.385E+01 0.310E-05   0.485E-04 0.377E-04 0.185E-03
   0.332E+02 -.219E-04 -.178E-03   -.377E+02 -.510E-11 -.563E-10   0.444E+01 0.414E-05 0.289E-05   -.569E-04 0.231E-04 0.185E-03
   0.166E+02 -.288E+02 0.162E-03   -.188E+02 0.326E+02 0.486E-10   0.222E+01 -.385E+01 -.124E-05   0.455E-04 0.106E-03 -.171E-03
   0.166E+02 0.288E+02 0.162E-03   -.188E+02 -.326E+02 0.455E-10   0.222E+01 0.385E+01 -.165E-05   -.114E-03 -.134E-04 -.171E-03
   -.332E+02 0.846E-04 0.162E-03   0.377E+02 0.764E-11 0.587E-10   -.444E+01 -.152E-05 -.145E-05   0.686E-04 -.922E-04 -.171E-03
   -.166E+02 0.288E+02 0.381E-04   0.188E+02 -.326E+02 0.456E-10   -.222E+01 0.385E+01 0.452E-05   -.142E-04 -.238E-04 -.386E-04
   -.166E+02 -.288E+02 0.374E-04   0.188E+02 0.326E+02 0.464E-10   -.222E+01 -.385E+01 0.493E-05   0.277E-04 -.476E-06 -.385E-04
   0.332E+02 -.262E-04 0.378E-04   -.377E+02 0.618E-11 0.565E-10   0.444E+01 0.138E-06 0.470E-05   -.134E-04 0.242E-04 -.385E-04
   0.166E+02 -.288E+02 -.200E-03   -.188E+02 0.326E+02 -.375E-11   0.222E+01 -.385E+01 -.756E-05   -.741E-04 0.835E-04 0.203E-03
   0.166E+02 0.288E+02 -.199E-03   -.188E+02 -.326E+02 0.392E-11   0.222E+01 0.385E+01 -.798E-05   -.352E-04 -.106E-03 0.203E-03
   -.332E+02 -.251E-04 -.200E-03   0.377E+02 0.777E-14 0.995E-13   -.444E+01 -.850E-06 -.779E-05   0.109E-03 0.225E-04 0.203E-03
   0.121E-06 -.161E-06 0.221E-04   0.000E+00 0.777E-14 0.854E-13   0.682E-07 -.369E-07 -.584E-05   -.115E-06 0.133E-06 -.145E-04

 POSITION                                       TOTAL-FORCE (eV/Angst)
      2.55342      1.47422      0.17189        -0.000001     -0.000000     -0.004695
      0.00000      0.00000      2.12428        -0.000001      0.000000      0.004699
      2.55342      1.47422      4.42045         0.000001      0.000000      0.004701
      2.55342     -1.47422      2.46806         0.000001     -0.000000     -0.004708
      0.00000      0.00000      4.76422        -0.000001     -0.000000     -0.004699
      2.55342     -1.47422      6.71662        -0.000001      0.000000      0.004708
      0.00000      0.00000      9.01279         0.000001      0.000000      0.004703
      2.55342      1.47422      7.06039         0.000001     -0.000000     -0.004705
      2.55342     -1.47422      9.35656        -0.000001     -0.000000     -0.004707
      2.55342      1.47422     11.30895        -0.000001      0.000000      0.004698
      2.55342     -1.47422     13.60512         0.000001      0.000000      0.004705
      0.00000      0.00000     11.65273         0.000001     -0.000000     -0.004705
      0.79840     -1.38287      3.44425        -0.000350      0.000591      0.000012
      0.79840      1.38287      3.44425        -0.000336     -0.000599      0.000012
      3.51003      0.00000      3.44425         0.000686      0.000008      0.000012
      1.75501     -0.09134      1.14808         0.000347     -0.000584     -0.000009
      1.75501     -2.85709      1.14808         0.000332      0.000592     -0.000009
      4.15022     -1.47422      1.14808        -0.000678     -0.000008     -0.000009
      3.35182     -2.85709      8.03659        -0.000346      0.000588      0.000010
      3.35182     -0.09134      8.03659        -0.000336     -0.000593      0.000010
      0.95661     -1.47422      8.03659         0.000681      0.000005      0.000010
      1.75501      2.85709      5.74042         0.000351     -0.000591     -0.000011
      1.75501      0.09134      5.74042         0.000335      0.000600     -0.000011
      4.15022      1.47422      5.74042        -0.000686     -0.000009     -0.000011
      3.35182      0.09134     12.62893        -0.000344      0.000599      0.000004
      3.35182      2.85709     12.62893        -0.000347     -0.000597      0.000004
      0.95661      1.47422     12.62893         0.000689     -0.000002      0.000004
      1.75501     -3.03977     10.33276         0.000348     -0.000595     -0.000005
      1.75501      3.03977     10.33276         0.000342      0.000599     -0.000004
      1.59680     -0.00000     10.33276        -0.000688     -0.000003     -0.000005
    total drift:                                0.000000     -0.000000      0.000002

  FREE ENERGIE OF THE ION-ELECTRON SYSTEM (eV)
  free  energy   TOTEN  =      -267.80479959 eV

  energy  without entropy=     -267.79263784  energy(sigma->0) =     -267.79871871

 writing wavefunctions