 vasp.5.4.4.18Apr17-6-g9f103f2a35 (build Jul 11 2019 11:52:51) complex

 executed on             LinuxIFC date 2024.08.29  19:22:18

 INCAR:
 POTCAR:    PAW_PBE Ti 08Apr2002
 POTCAR:    PAW_PBE O 08Apr2002

 POTCAR:    PAW_PBE Ti 08Apr2002
   VRHFIN =Ti: d3 s1

   TITEL  = PAW_PBE Ti 08Apr2002
   POMASS =   47.880; ZVAL   =    4.000    mass and valenz
   ENMAX  =  178.330; ENMIN  =  133.747 eV

 POTCAR:    PAW_PBE O 08Apr2002
   VRHFIN =O: s2p4

   TITEL  = PAW_PBE O 08Apr2002
   POMASS =   16.000; ZVAL   =    6.000    mass and valenz
   ENMAX  =  400.000; ENMIN  =  300.000 eV

  PAW_PBE Ti 08Apr2002                  :
  PAW_PBE O 08Apr2002                   :

 POSCAR: Ti12 O18
  positions in direct lattice
 exchange correlation table for  LEXCH =        8
   RHO(1)=    0.500       N(1)  =     2000
   RHO(2)=  100.500       N(2)  =     4000

 ion  position               nearest neighbor table
   1  0.333  0.667  0.011-  16 2.01  17 2.01  18 2.01  25 2.07  27 2.07  26 2.07  10 2.60  11 2.96
                            11 2.96  11 2.96
   2  0.000  0.000  0.155-  16 2.01  17 2.01  18 2.01  14 2.07  13 2.07  15 2.07   5 2.60   4 2.96
                             4 2.96   4 2.96
   3  0.333  0.667  0.322-  15 2.01  14 2.01  13 2.01  23 2.07  24 2.07  22 2.07   8 2.60   5 2.96
                             5 2.96   5 2.96
   4  0.667  0.333  0.178-  15 2.01  13 2.01  14 2.01  16 2.07  18 2.07  17 2.07  11 2.60   2 2.96
                             2 2.96   2 2.96
   5  0.000  0.000  0.345-  22 2.01  23 2.01  24 2.01  14 2.07  13 2.07  15 2.07   2 2.60   3 2.96
                             3 2.96   3 2.96
   6  0.667  0.333  0.489-  23 2.01  22 2.01  24 2.01  20 2.07  21 2.07  19 2.07   9 2.60   8 2.96
                             8 2.96   8 2.96
   7  0.000  0.000  0.655-  19 2.01  20 2.01  21 2.01  28 2.07  29 2.07  30 2.07  12 2.60   9 2.96
                             9 2.96   9 2.96
   8  0.333  0.667  0.511-  20 2.01  19 2.01  21 2.01  23 2.07  24 2.07  22 2.07   3 2.60   6 2.96
                             6 2.96   6 2.96
   9  0.667  0.333  0.678-  30 2.01  29 2.01  28 2.01  20 2.07  21 2.07  19 2.07   6 2.60   7 2.96
                             7 2.96   7 2.96
  10  0.333  0.667  0.822-  30 2.01  28 2.01  29 2.01  25 2.07  27 2.07  26 2.07   1 2.60  12 2.96
                            12 2.96  12 2.96
  11  0.667  0.333  0.989-  25 2.01  26 2.01  27 2.01  16 2.07  18 2.07  17 2.07   4 2.60   1 2.96
                             1 2.96   1 2.96
  12  0.000  0.000  0.845-  25 2.01  26 2.01  27 2.01  28 2.07  29 2.07  30 2.07   7 2.60  10 2.96
                            10 2.96  10 2.96
  13  0.314  0.000  0.250-   4 2.01   3 2.01   2 2.07   5 2.07
  14  0.000  0.314  0.250-   3 2.01   4 2.01   2 2.07   5 2.07
  15  0.686  0.686  0.250-   3 2.01   4 2.01   2 2.07   5 2.07
  16  0.352  0.333  0.083-   1 2.01   2 2.01   4 2.07  11 2.07
  17  0.667  0.019  0.083-   1 2.01   2 2.01   4 2.07  11 2.07
  18  0.981  0.648  0.083-   1 2.01   2 2.01   4 2.07  11 2.07
  19  0.981  0.333  0.583-   8 2.01   7 2.01   9 2.07   6 2.07
  20  0.667  0.648  0.583-   8 2.01   7 2.01   9 2.07   6 2.07
  21  0.352  0.019  0.583-   7 2.01   8 2.01   9 2.07   6 2.07
  22  0.019  0.667  0.417-   6 2.01   5 2.01   3 2.07   8 2.07
  23  0.333  0.352  0.417-   6 2.01   5 2.01   3 2.07   8 2.07
  24  0.648  0.981  0.417-   5 2.01   6 2.01   3 2.07   8 2.07
  25  0.648  0.667  0.917-  11 2.01  12 2.01  10 2.07   1 2.07
  26  0.333  0.981  0.917-  11 2.01  12 2.01  10 2.07   1 2.07
  27  0.019  0.352  0.917-  11 2.01  12 2.01  10 2.07   1 2.07
  28  0.686  0.000  0.750-  10 2.01   9 2.01   7 2.07  12 2.07
  29  0.000  0.686  0.750-   9 2.01  10 2.01   7 2.07  12 2.07
  30  0.314  0.314  0.750-   9 2.01  10 2.01   7 2.07  12 2.07

  LATTYP: Found a hexagonal cell.
 ALAT       =     5.1068306418
 C/A-ratio  =     2.6977611201

  Lattice vectors:

 A1 = (   2.5534153209,  -4.4226450686,   0.0000000000)
 A2 = (   2.5534153209,   4.4226450686,   0.0000000000)
 A3 = (   0.0000000000,   0.0000000000,  13.7770091525)

Analysis of symmetry for initial positions (statically):
 Subroutine PRICEL returns following result:

  LATTYP: Found a trigonal (rhomboedric) cell.
 ALAT       =     5.4573613771
 COS(alpha) =     0.5621680104

[...]

   3 primitive cells build up your supercell.

 Routine SETGRP: Setting up the symmetry group for a
 hexagonal supercell.

 Subroutine GETGRP returns: Found 12 space group operations
 (whereof  6 operations were pure point group operations)
 out of a pool of 24 trial point group operations.

The static configuration has the point symmetry S_6 .
 The point group associated with its full space group is D_3d.

Analysis of symmetry for dynamics (positions and initial velocities):
 Subroutine PRICEL returns following result:

  LATTYP: Found a trigonal (rhomboedric) cell.
 ALAT       =     5.4573613771
 COS(alpha) =     0.5621680104

  Lattice vectors:

 A1 = (  -2.5534153209,   1.4742150229,  -4.5923363842)
 A2 = (   2.5534153209,   1.4742150229,  -4.5923363842)
 A3 = (   0.0000000000,  -2.9484300457,  -4.5923363842)

   3 primitive cells build up your supercell.

 Routine SETGRP: Setting up the symmetry group for a
 hexagonal supercell.

 Subroutine GETGRP returns: Found 12 space group operations
 (whereof  6 operations were pure point group operations)
 out of a pool of 24 trial point group operations.

The dynamic configuration has the point symmetry S_6 .
 The point group associated with its full space group is D_3d.

 Subroutine INISYM returns: Found 12 space group operations
 (whereof  6 operations are pure point group operations),
 and found     3 'primitive' translations

 KPOINTS: K-Spacing Value to Generate K-Mesh: 0.03

Automatic generation of k-mesh.
Space group operators:
 irot       det(A)        alpha          n_x          n_y          n_z        tau_x        tau_y        tau_z
    1     1.000000     0.000001     1.000000     0.000000     0.000000     0.000000     0.000000     0.000000
    2    -1.000000     0.000001     1.000000     0.000000     0.000000     0.000000     0.000000     0.000000
    3     1.000000   120.000000     0.000000     0.000000    -1.000000     0.000000     0.000000     0.000000
    4    -1.000000   120.000000     0.000000     0.000000    -1.000000     0.000000     0.000000     0.000000
    5     1.000000   120.000000     0.000000     0.000000     1.000000     0.000000     0.000000     0.000000
    6    -1.000000   120.000000     0.000000     0.000000     1.000000     0.000000     0.000000     0.000000
    7     1.000000   180.000000     0.500000    -0.866025     0.000000    -0.000000     0.000000    -0.500000
    8    -1.000000   180.000000     0.500000    -0.866025     0.000000    -0.000000     0.000000    -0.500000
    9     1.000000   180.000000    -0.500000    -0.866025     0.000000    -0.000000     0.000000    -0.500000
   10    -1.000000   180.000000    -0.500000    -0.866025     0.000000    -0.000000     0.000000    -0.500000
   11     1.000000   179.999999     1.000000     0.000000     0.000000    -0.000000     0.000000    -0.500000
   12    -1.000000   179.999999     1.000000     0.000000     0.000000    -0.000000     0.000000    -0.500000

 Subroutine IBZKPT returns following result:

 Found     19 irreducible k-points:

 Following reciprocal coordinates:
            Coordinates               Weight
  0.000000  0.000000  0.250000      2.000000
  0.111111  0.000000  0.250000      6.000000
  0.222222  0.000000  0.250000      6.000000
  0.333333  0.000000  0.250000      6.000000
  0.444444  0.000000  0.250000      6.000000
 -0.444444 -0.000000  0.250000      6.000000
 -0.333333 -0.000000  0.250000      6.000000
 -0.222222 -0.000000  0.250000      6.000000
 -0.111111 -0.000000  0.250000      6.000000
  0.111111  0.111111  0.250000     12.000000
  0.222222  0.111111  0.250000     12.000000
  0.333333  0.111111  0.250000     12.000000
  0.444444  0.111111  0.250000     12.000000
 -0.444444  0.111111  0.250000     12.000000
 -0.333333  0.111111  0.250000     12.000000
  0.222222  0.222222  0.250000     12.000000
  0.333333  0.222222  0.250000     12.000000
  0.444444  0.222222  0.250000     12.000000
  0.333333  0.333333  0.250000      4.000000

 Following cartesian coordinates:
            Coordinates               Weight
  0.000000  0.000000  0.018146      2.000000
  0.021757 -0.012562  0.018146      6.000000
  0.043515 -0.025123  0.018146      6.000000
  0.065272 -0.037685  0.018146      6.000000
  0.087029 -0.050246  0.018146      6.000000
 -0.087029  0.050246  0.018146      6.000000
 -0.065272  0.037685  0.018146      6.000000
 -0.043515  0.025123  0.018146      6.000000
 -0.021757  0.012562  0.018146      6.000000
  0.043515  0.000000  0.018146     12.000000
  0.065272 -0.012562  0.018146     12.000000
  0.087029 -0.025123  0.018146     12.000000
  0.108787 -0.037685  0.018146     12.000000
 -0.065272  0.062808  0.018146     12.000000
 -0.043515  0.050246  0.018146     12.000000
  0.087029  0.000000  0.018146     12.000000
  0.108787 -0.012562  0.018146     12.000000
  0.130544 -0.025123  0.018146     12.000000
  0.130544  0.000000  0.018146      4.000000

 SYSTEM =  unknown system
 POSCAR =  Ti12 O18

 Startparameter for this run:
   NWRITE =      2    write-flag & timer
   PREC   = accura    normal or accurate (medium, high low for compatibility)
   ISTART =      0    job   : 0-new  1-cont  2-samecut
   ICHARG =      2    charge: 1-file 2-atom 10-const
   ISPIN  =      1    spin polarized calculation?
   LNONCOLLINEAR =      F non collinear calculations
   LSORBIT =      F    spin-orbit coupling
   INIWAV =      1    electr: 0-lowe 1-rand  2-diag
   LASPH  =      F    aspherical Exc in radial PAW
   METAGGA=      F    non-selfconsistent MetaGGA calc.

 Electronic Relaxation 1
   ENCUT  =  400.0 eV  29.40 Ry    5.42 a.u.   8.33  8.33 22.47*2*pi/ulx,y,z
   ENINI  =  400.0     initial cutoff
   ENAUG  =  605.4 eV  augmentation charge cutoff
   NELM   =     90;   NELMIN=  6; NELMDL= -5     # of ELM steps
   EDIFF  = 0.1E-07   stopping-criterion for ELM
   LREAL  =      F    real-space projection
   NLSPLINE    = F    spline interpolate recip. space projectors
   LCOMPAT=      F    compatible to vasp.4.4
   GGA_COMPAT  = T    GGA compatible to vasp.4.4-vasp.4.6
   LMAXPAW     = -100 max onsite density
   LMAXMIX     =    2 max onsite mixed and CHGCAR
   VOSKOWN=      0    Vosko Wilk Nusair interpolation
   ROPT   =    0.00000   0.00000
 Ionic relaxation
   EDIFFG = -.1E-01   stopping-criterion for IOM
   NSW    =    100    number of steps for IOM
   NBLOCK =      1;   KBLOCK =    100    inner block; outer block
   IBRION =      2    ionic relax: 0-MD 1-quasi-New 2-CG
   NFREE  =      1    steps in history (QN), initial steepest desc. (CG)
   ISIF   =      2    stress and relaxation
   IWAVPR =     11    prediction:  0-non 1-charg 2-wave 3-comb
   ISYM   =      2    0-nonsym 1-usesym 2-fastsym
   LCORR  =      T    Harris-Foulkes like correction to forces

   POTIM  = 0.5000    time-step for ionic-motion
   TEIN   =    0.0    initial temperature
   TEBEG  =    0.0;   TEEND  =   0.0 temperature during run
   SMASS  =  -3.00    Nose mass-parameter (am)
[...]
      1.75064     -2.86467      1.14808         0.011980      0.020750      0.000000
      4.15897     -1.47422      1.14808        -0.023960      0.000000      0.000000
      3.35619     -2.86467      8.03659        -0.011980      0.020750      0.000000
      3.35619     -0.08376      8.03659        -0.011980     -0.020750      0.000000
      0.94786     -1.47422      8.03659         0.023960      0.000000      0.000000
      1.75064      2.86467      5.74042         0.011980     -0.020750      0.000000
      1.75064      0.08376      5.74042         0.011980      0.020750      0.000000
      4.15897      1.47422      5.74042        -0.023960      0.000000      0.000000
      3.35619      0.08376     12.62893        -0.011980      0.020750      0.000000
      3.35619      2.86467     12.62893        -0.011980     -0.020750      0.000000
      0.94786      1.47422     12.62893         0.023960      0.000000      0.000000
      1.75064     -3.03219     10.33276         0.011980     -0.020750      0.000000
      1.75064      3.03219     10.33276         0.011980      0.020750      0.000000
      1.60556     -0.00000     10.33276        -0.023960      0.000000      0.000000
    total drift:                                0.000000      0.000000      0.000000

  FREE ENERGIE OF THE ION-ELECTRON SYSTEM (eV)
  free  energy   TOTEN  =      -267.78655346 eV

  energy  without entropy=     -267.77484957  energy(sigma->0) =     -267.78070152

[...]

 d Force = 0.1163772E-01[ 0.728E-02, 0.160E-01]  d Energy = 0.1157611E-01 0.616E-04
 d Force = 0.1493167E+01[ 0.147E+01, 0.151E+01]  d Ewald  = 0.1493113E+01 0.543E-04

 Steepest descent step on ions:
 trial-energy change:   -0.011576  1 .order   -0.011638   -0.015996   -0.007280
  (g-gl).g = 0.160E-01      g.g   = 0.160E-01  gl.gl    = 0.000E+00
 g(Force)  = 0.160E-01   g(Stress)= 0.000E+00 ortho     = 0.000E+00
 gamma     =   0.00000
 trial     =   1.00000
 opt step  =   1.90871  (harmonic =   1.83515) maximal distance =0.01506586
 next E    =  -267.801391   (d E  =  -0.01484)

[...]

 d Force = 0.3066272E-02[-0.482E-03, 0.661E-02]  d Energy = 0.3002224E-02 0.640E-04
 d Force = 0.1320210E+01[ 0.130E+01, 0.134E+01]  d Ewald  = 0.1320165E+01 0.455E-04

[...]

 d Force = 0.3236991E-02[ 0.168E-02, 0.480E-02]  d Energy = 0.3232105E-02 0.489E-05
 d Force =-0.2379639E+01[-0.240E+01,-0.236E+01]  d Ewald  =-0.2379604E+01-0.350E-04

 Conjugate gradient step on ions:
 trial-energy change:   -0.003232  1 .order   -0.003237   -0.004799   -0.001675
  (g-gl).g = 0.475E-02      g.g   = 0.422E-02  gl.gl    = 0.160E-01
 g(Force)  = 0.422E-02   g(Stress)= 0.000E+00 ortho     =-0.531E-03
 gamma     =   0.29690
 trial     =   1.18174
 opt step  =   1.81561  (harmonic =   1.81561) maximal distance =0.00654975
 next E    =  -267.804818   (d E  =  -0.00369)

[...]

 eigenvalue-minimisations  :  4592
 total energy-change (2. order) : 0.1027765E-06  (-0.1969065E-07)
 number of electron     156.0000081 magnetization
 augmentation part       24.4566340 magnetization

 Broyden mixing:
  rms(total) = 0.86672E-04    rms(broyden)= 0.86633E-04
  rms(prec ) = 0.91306E-04
  weight for this iteration     100.00

 eigenvalues of (default mixing * dielectric matrix)
  average eigenvalue GAMMA=   1.4062
  2.6600  1.5456  1.5456  1.0764  0.9184  0.6913

[...]

--------------------------------------- Iteration      5(   8)  ---------------------------------------

 eigenvalue-minimisations  :  4240
 total energy-change (2. order) :-0.7410563E-08  (-0.8048557E-08)
 number of electron     156.0000081 magnetization
 augmentation part       24.4566340 magnetization

 Free energy of the ion-electron system (eV)
  alpha Z        PSCENC =       739.05072767
  Ewald energy   TEWEN  =     -7574.34864658
  -Hartree energ DENC   =     -2317.22488445
  -exchange      EXHF   =         0.00000000
  -V(xc)+E(xc)   XCENC  =        84.73526305
  PAW double counting   =     14617.62040821   -14170.36844238
  entropy T*S    EENTRO =        -0.01216177
  eigenvalues    EBANDS =      -565.50179853
  atomic energy  EATOM  =      8918.24473510
  Solvation  Ediel_sol  =         0.00000000
  free energy    TOTEN  =      -267.80479967 eV

  energy without entropy =     -267.79263790  energy(sigma->0) =     -267.79871879

 average (electrostatic) potential at core
  the test charge radii are     1.2598  0.7215
  (the norm of the test charge is              1.0000)
       1 -26.1361       2 -26.1361       3 -26.1361       4 -26.1361       5 -26.1361
       6 -26.1361       7 -26.1361       8 -26.1361       9 -26.1361      10 -26.1361
      11 -26.1361      12 -26.1361      13 -72.0134      14 -72.0134      15 -72.0134
      16 -72.0134      17 -72.0134      18 -72.0134      19 -72.0134      20 -72.0134
      21 -72.0134      22 -72.0134      23 -72.0134      24 -72.0134      25 -72.0134
      26 -72.0134      27 -72.0134      28 -72.0134      29 -72.0134      30 -72.0134

 E-fermi :   5.1998     XC(G=0): -11.4847     alpha+bet :-11.6590

[...]

 k-point    19 :       0.3333    0.3333    0.2500
  band No.  band energies     occupation
      1     -15.0871      2.00000
      2     -15.0871      2.00000
      3     -15.0871      2.00000
      4     -15.0476      2.00000
      5     -15.0476      2.00000
      6     -15.0476      2.00000
      7     -14.8349      2.00000
      8     -14.8349      2.00000
      9     -14.8349      2.00000
     10     -14.7313      2.00000
     11     -14.7313      2.00000
     12     -14.7313      2.00000
     13     -14.6231      2.00000
     14     -14.6231      2.00000
     15     -14.6231      2.00000
     16     -14.5590      2.00000
     17     -14.5590      2.00000
     18     -14.5590      2.00000
     19      -2.5453      2.00000
     20      -2.5453      2.00000
     21      -2.5453      2.00000
     22      -2.4990      2.00000
     23      -2.4990      2.00000
     24      -2.4990      2.00000
     25      -2.1584      2.00000
     26      -2.1584      2.00000
     27      -2.1584      2.00000
     28      -2.1276      2.00000
     29      -2.1276      2.00000
     30      -2.1276      2.00000
     31      -1.8408      2.00000
     32      -1.8408      2.00000
     33      -1.8408      2.00000
     34      -1.7008      2.00000
     35      -1.7008      2.00000
     36      -1.7008      2.00000
     37      -1.1466      2.00000
     38      -1.1466      2.00000
     39      -1.1466      2.00000
     40      -1.0966      2.00000
     41      -1.0966      2.00000
     42      -1.0966      2.00000
     43      -0.9450      2.00000
     44      -0.9450      2.00000
     45      -0.9450      2.00000
     46      -0.7964      2.00000
     47      -0.7964      2.00000
     48      -0.7964      2.00000
     49      -0.6472      2.00000
     50      -0.6472      2.00000
     51      -0.6472      2.00000
     52      -0.2801      2.00000
     53      -0.2801      2.00000
     54      -0.2801      2.00000
     55       0.0556      2.00000
     56       0.0556      2.00000
     57       0.0556      2.00000
     58       0.1661      2.00000
     59       0.1661      2.00000
     60       0.1661      2.00000
[...]
     82       5.4386      0.00000
     83       5.4386      0.00000
     84       5.4386      0.00000
     85       5.8813      0.00000
     86       5.8813      0.00000
     87       5.8813      0.00000
     88       5.9414      0.00000
     89       5.9414      0.00000
     90       5.9414      0.00000
     91       6.2062      0.00000
     92       6.2062      0.00000
     93       6.2062      0.00000
     94       6.2263      0.00000
     95       6.2263      0.00000
     96       6.2263      0.00000

 soft charge-density along one line, spin component           1
         0         1         2         3         4         5         6         7         8         9
 total charge-density along one line

------------------------ aborting loop because EDIFF is reached ----------------------------------------

  FORCE on cell =-STRESS in cart. coord.  units (eV):
  Direction    XX          YY          ZZ          XY          YZ          ZX
  Alpha Z   739.05073   739.05073   739.05073
  Ewald   -2509.29955 -2509.29955 -2555.77727     0.00000    -0.00000    -0.00000
  Hartree   766.03487   766.03487   785.15482    -0.00000    -0.00000    -0.00000
  E(xc)    -736.61275  -736.61272  -742.96730    -0.00000    -0.00000     0.00000
  Local    -686.36414  -686.36279  -671.99462    -0.00000     0.00000    -0.00000
  n-local  -452.22767  -447.81204  -467.53747     2.88114    -0.08853     0.43574
  augment   186.46532   186.46430   195.09716     0.00000     0.00000     0.00000
  Kinetic  2690.06744  2686.27791  2721.25213    -1.83230     1.67656    -2.51294
  Fock        0.00000     0.00000     0.00000     0.00000     0.00000     0.00000
  Total      -2.57252    -2.57252     2.27816     0.00000    -0.00000     0.00000
  in kB     -13.24590   -13.24590    11.73024     0.00000    -0.00000     0.00000

 VOLUME and BASIS-vectors are now :
  energy-cutoff  :      400.00
  volume of cell :      311.16
      direct lattice vectors                 reciprocal lattice vectors
     2.553415321 -4.422645069  0.000000000     0.195816167 -0.113054517  0.000000000
     2.553415321  4.422645069  0.000000000     0.195816167  0.113054517  0.000000000
     0.000000000  0.000000000 13.777009152     0.000000000  0.000000000  0.072584694

  length of vectors
     5.106830642  5.106830642 13.777009152     0.226109033  0.226109033  0.072584694

 FORCES acting on ions
    electron-ion (+dipol)            ewald-force                    non-local-force                 convergence-correction
   -.490E-06 0.292E-07 -.234E+02   -.607E-13 0.138E-10 0.244E+02   0.429E-17 0.948E-17 -.100E+01   0.207E-08 -.370E-09 0.281E-04
   -.446E-06 -.227E-07 0.234E+02   -.526E-13 0.365E-11 -.244E+02   -.166E-16 -.436E-17 0.100E+01   0.207E-08 0.370E-09 -.281E-04
   0.490E-06 -.292E-07 0.234E+02   -.733E-14 0.102E-10 -.244E+02   0.328E-17 -.124E-16 0.100E+01   -.207E-08 0.370E-09 -.281E-04
   0.446E-06 0.227E-07 -.234E+02   -.119E-13 -.102E-10 0.244E+02   -.769E-17 0.139E-16 -.100E+01   -.207E-08 -.370E-09 0.281E-04
   -.490E-06 0.292E-07 -.234E+02   -.393E-13 -.365E-11 0.244E+02   0.574E-17 0.408E-17 -.100E+01   0.207E-08 -.370E-09 0.281E-04
   -.446E-06 -.227E-07 0.234E+02   -.877E-13 -.138E-10 -.244E+02   -.172E-16 -.532E-17 0.100E+01   0.207E-08 0.370E-09 -.281E-04
   0.490E-06 -.292E-07 0.234E+02   0.782E-13 0.366E-11 -.244E+02   -.156E-17 0.111E-18 0.100E+01   -.207E-08 0.370E-09 -.281E-04
   0.446E-06 0.227E-07 -.234E+02   0.560E-13 0.137E-10 0.244E+02   -.198E-17 0.677E-17 -.100E+01   -.207E-08 -.370E-09 0.281E-04
   -.490E-06 0.292E-07 -.234E+02   0.249E-13 -.102E-10 0.244E+02   -.331E-17 0.941E-17 -.100E+01   0.207E-08 -.370E-09 0.281E-04
   -.446E-06 -.227E-07 0.234E+02   -.142E-13 0.102E-10 -.244E+02   -.158E-16 0.567E-17 0.100E+01   0.207E-08 0.370E-09 -.281E-04
   0.490E-06 -.292E-07 0.234E+02   0.904E-13 -.138E-10 -.244E+02   -.838E-17 -.102E-16 0.100E+01   -.207E-08 0.370E-09 -.281E-04
   0.446E-06 0.227E-07 -.234E+02   0.426E-13 -.368E-11 0.244E+02   -.742E-17 -.494E-17 -.100E+01   -.207E-08 -.370E-09 0.281E-04
   -.166E+02 0.288E+02 0.815E-07   0.188E+02 -.326E+02 0.284E-11   -.222E+01 0.385E+01 -.401E-18   -.257E-04 0.444E-04 0.128E-09
   -.166E+02 -.288E+02 -.170E-06   0.188E+02 0.326E+02 -.302E-11   -.222E+01 -.385E+01 -.338E-17   -.257E-04 -.444E-04 -.131E-09
   0.332E+02 -.820E-07 -.128E-08   -.377E+02 0.313E-15 -.214E-13   0.444E+01 0.141E-16 0.102E-17   0.515E-04 -.187E-13 -.167E-11
   0.166E+02 -.288E+02 -.815E-07   -.188E+02 0.326E+02 -.347E-10   0.222E+01 -.385E+01 -.371E-18   0.257E-04 -.444E-04 -.129E-09
   0.166E+02 0.288E+02 0.170E-06   -.188E+02 -.326E+02 -.379E-10   0.222E+01 0.385E+01 0.189E-17   0.257E-04 0.444E-04 0.130E-09
   -.332E+02 0.821E-07 0.123E-08   0.377E+02 -.845E-11 -.477E-10   -.444E+01 0.273E-17 -.120E-17   -.515E-04 0.443E-14 0.612E-12
   -.166E+02 0.288E+02 0.814E-07   0.188E+02 -.326E+02 -.384E-10   -.222E+01 0.385E+01 -.337E-18   -.257E-04 0.444E-04 0.130E-09
   -.166E+02 -.288E+02 -.170E-06   0.188E+02 0.326E+02 -.362E-10   -.222E+01 -.385E+01 -.176E-17   -.257E-04 -.444E-04 -.129E-09
   0.332E+02 -.820E-07 -.133E-08   -.377E+02 -.843E-11 -.477E-10   0.444E+01 -.156E-16 0.808E-18   0.515E-04 -.167E-13 0.471E-12
   0.166E+02 -.288E+02 -.814E-07   -.188E+02 0.326E+02 0.385E-10   0.222E+01 -.385E+01 -.226E-18   0.257E-04 -.444E-04 -.130E-09
   0.166E+02 0.288E+02 0.170E-06   -.188E+02 -.326E+02 0.332E-10   0.222E+01 0.385E+01 0.947E-19   0.257E-04 0.444E-04 0.128E-09
   -.332E+02 0.820E-07 0.132E-08   0.377E+02 0.788E-11 0.486E-10   -.444E+01 -.142E-16 -.329E-17   -.515E-04 0.257E-13 -.956E-12
   -.166E+02 0.288E+02 0.815E-07   0.188E+02 -.326E+02 0.346E-10   -.222E+01 0.385E+01 0.144E-17   -.257E-04 0.444E-04 0.130E-09
   -.166E+02 -.288E+02 -.170E-06   0.188E+02 0.326E+02 0.390E-10   -.222E+01 -.385E+01 -.107E-17   -.257E-04 -.444E-04 -.128E-09
   0.332E+02 -.820E-07 -.125E-08   -.377E+02 0.790E-11 0.484E-10   0.444E+01 0.162E-16 0.105E-17   0.515E-04 -.324E-13 0.102E-11
   0.166E+02 -.288E+02 -.815E-07   -.188E+02 0.326E+02 -.360E-11   0.222E+01 -.385E+01 0.146E-17   0.257E-04 -.444E-04 -.129E-09
   0.166E+02 0.288E+02 0.170E-06   -.188E+02 -.326E+02 0.367E-11   0.222E+01 0.385E+01 0.425E-17   0.257E-04 0.444E-04 0.130E-09
   -.332E+02 0.820E-07 0.129E-08   0.377E+02 0.661E-15 0.711E-13   -.444E+01 -.527E-17 -.118E-17   -.515E-04 0.485E-13 0.566E-12
   0.920E-11 0.889E-11 -.521E-10   -.355E-13 -.644E-14 -.192E-12   -.266E-14 -.527E-17 -.119E-17   -.173E-12 -.216E-12 -.774E-13

 POSITION                                       TOTAL-FORCE (eV/Angst)
      2.55342      1.47422      0.17189         0.000000      0.000000     -0.004703
     -0.00000      0.00000      2.12428         0.000000      0.000000      0.004703
      2.55342      1.47422      4.42045         0.000000      0.000000      0.004703
      2.55342     -1.47422      2.46806         0.000000      0.000000     -0.004703
     -0.00000      0.00000      4.76422         0.000000      0.000000     -0.004703
      2.55342     -1.47422      6.71662         0.000000      0.000000      0.004703
     -0.00000      0.00000      9.01279         0.000000      0.000000      0.004703
      2.55342      1.47422      7.06039         0.000000      0.000000     -0.004703
      2.55342     -1.47422      9.35656         0.000000      0.000000     -0.004703
      2.55342      1.47422     11.30895         0.000000      0.000000      0.004703
      2.55342     -1.47422     13.60512         0.000000      0.000000      0.004703
     -0.00000      0.00000     11.65273         0.000000      0.000000     -0.004703
      0.79840     -1.38287      3.44425        -0.000352      0.000610     -0.000000
      0.79840      1.38287      3.44425        -0.000352     -0.000610      0.000000
      3.51003      0.00000      3.44425         0.000704      0.000000      0.000000
      1.75501     -0.09134      1.14808         0.000352     -0.000610      0.000000
      1.75501     -2.85709      1.14808         0.000352      0.000610     -0.000000
      4.15022     -1.47422      1.14808        -0.000704      0.000000     -0.000000
      3.35182     -2.85709      8.03659        -0.000352      0.000610     -0.000000
      3.35182     -0.09134      8.03659        -0.000352     -0.000610      0.000000
      0.95661     -1.47422      8.03659         0.000704      0.000000      0.000000
      1.75501      2.85709      5.74042         0.000352     -0.000610      0.000000
      1.75501      0.09134      5.74042         0.000352      0.000610      0.000000
      4.15022      1.47422      5.74042        -0.000704      0.000000     -0.000000
      3.35182      0.09134     12.62893        -0.000352      0.000610      0.000000
      3.35182      2.85709     12.62893        -0.000352     -0.000610     -0.000000
      0.95661      1.47422     12.62893         0.000704      0.000000      0.000000
      1.75501     -3.03977     10.33276         0.000352     -0.000610      0.000000
      1.75501      3.03977     10.33276         0.000352      0.000610     -0.000000
      1.59680     -0.00000     10.33276        -0.000704      0.000000     -0.000000
    total drift:                                0.000000      0.000000     -0.000000

  FREE ENERGIE OF THE ION-ELECTRON SYSTEM (eV)
  free  energy   TOTEN  =      -267.80479967 eV

  energy  without entropy=     -267.79263790  energy(sigma->0) =     -267.79871879

 d Force = 0.4395372E-03[-0.195E-04, 0.899E-03]  d Energy = 0.4357674E-03 0.377E-05
 d Force =-0.1292505E+01[-0.130E+01,-0.129E+01]  d Ewald  =-0.1292500E+01-0.542E-05

 reached required accuracy - stopping structural energy minimisation
 writing wavefunctions